outdata_prefix "./out/kpt-smear"

# Suppress some unused outputs
prtden 0
prteig 0
prtgsr 0
prtkden 0
prtwf 0

# Atoms definition
ntypat 1
znucl 41
pseudos "Nb.psp8"
pp_dirpath "../pseudos/PBE-FR"

# Crystal definition
natom 1
typat 1
xred 0 0 0
acell 0.33005 0.33005 0.33005 nm
rprim -0.5 0.5 0.5   0.5 -0.5 0.5   0.5 0.5 -0.5
kptopt 1
nshiftk 2
shiftk 0.25 0.25 0.25 -0.25 -0.25 -0.25

# Spin-orbit coupling
nsppol 1
nspinor 2
nspden 1

# Calculation params
toldfe 1e-08
ecut 42 Ha
nstep 40
occopt 4
nband 20

# Define datasets
ndtset 210

ngkpt1 3 3 3
tsmear1 0.001

ngkpt2 3 3 3
tsmear2 0.0012589254117941673

ngkpt3 3 3 3
tsmear3 0.0015848931924611134

ngkpt4 3 3 3
tsmear4 0.00199526231496888

ngkpt5 3 3 3
tsmear5 0.0025118864315095803

ngkpt6 3 3 3
tsmear6 0.0031622776601683794

ngkpt7 3 3 3
tsmear7 0.0039810717055349725

ngkpt8 3 3 3
tsmear8 0.005011872336272723

ngkpt9 3 3 3
tsmear9 0.006309573444801933

ngkpt10 3 3 3
tsmear10 0.007943282347242816

ngkpt11 3 3 3
tsmear11 0.01

ngkpt12 3 3 3
tsmear12 0.012589254117941673

ngkpt13 3 3 3
tsmear13 0.015848931924611134

ngkpt14 3 3 3
tsmear14 0.019952623149688795

ngkpt15 3 3 3
tsmear15 0.0251188643150958

ngkpt16 3 3 3
tsmear16 0.0316227766016838

ngkpt17 3 3 3
tsmear17 0.03981071705534973

ngkpt18 3 3 3
tsmear18 0.050118723362727234

ngkpt19 3 3 3
tsmear19 0.06309573444801933

ngkpt20 3 3 3
tsmear20 0.07943282347242815

ngkpt21 3 3 3
tsmear21 0.1

ngkpt22 4 4 4
tsmear22 0.001

ngkpt23 4 4 4
tsmear23 0.0012589254117941673

ngkpt24 4 4 4
tsmear24 0.0015848931924611134

ngkpt25 4 4 4
tsmear25 0.00199526231496888

ngkpt26 4 4 4
tsmear26 0.0025118864315095803

ngkpt27 4 4 4
tsmear27 0.0031622776601683794

ngkpt28 4 4 4
tsmear28 0.0039810717055349725

ngkpt29 4 4 4
tsmear29 0.005011872336272723

ngkpt30 4 4 4
tsmear30 0.006309573444801933

ngkpt31 4 4 4
tsmear31 0.007943282347242816

ngkpt32 4 4 4
tsmear32 0.01

ngkpt33 4 4 4
tsmear33 0.012589254117941673

ngkpt34 4 4 4
tsmear34 0.015848931924611134

ngkpt35 4 4 4
tsmear35 0.019952623149688795

ngkpt36 4 4 4
tsmear36 0.0251188643150958

ngkpt37 4 4 4
tsmear37 0.0316227766016838

ngkpt38 4 4 4
tsmear38 0.03981071705534973

ngkpt39 4 4 4
tsmear39 0.050118723362727234

ngkpt40 4 4 4
tsmear40 0.06309573444801933

ngkpt41 4 4 4
tsmear41 0.07943282347242815

ngkpt42 4 4 4
tsmear42 0.1

ngkpt43 5 5 5
tsmear43 0.001

ngkpt44 5 5 5
tsmear44 0.0012589254117941673

ngkpt45 5 5 5
tsmear45 0.0015848931924611134

ngkpt46 5 5 5
tsmear46 0.00199526231496888

ngkpt47 5 5 5
tsmear47 0.0025118864315095803

ngkpt48 5 5 5
tsmear48 0.0031622776601683794

ngkpt49 5 5 5
tsmear49 0.0039810717055349725

ngkpt50 5 5 5
tsmear50 0.005011872336272723

ngkpt51 5 5 5
tsmear51 0.006309573444801933

ngkpt52 5 5 5
tsmear52 0.007943282347242816

ngkpt53 5 5 5
tsmear53 0.01

ngkpt54 5 5 5
tsmear54 0.012589254117941673

ngkpt55 5 5 5
tsmear55 0.015848931924611134

ngkpt56 5 5 5
tsmear56 0.019952623149688795

ngkpt57 5 5 5
tsmear57 0.0251188643150958

ngkpt58 5 5 5
tsmear58 0.0316227766016838

ngkpt59 5 5 5
tsmear59 0.03981071705534973

ngkpt60 5 5 5
tsmear60 0.050118723362727234

ngkpt61 5 5 5
tsmear61 0.06309573444801933

ngkpt62 5 5 5
tsmear62 0.07943282347242815

ngkpt63 5 5 5
tsmear63 0.1

ngkpt64 6 6 6
tsmear64 0.001

ngkpt65 6 6 6
tsmear65 0.0012589254117941673

ngkpt66 6 6 6
tsmear66 0.0015848931924611134

ngkpt67 6 6 6
tsmear67 0.00199526231496888

ngkpt68 6 6 6
tsmear68 0.0025118864315095803

ngkpt69 6 6 6
tsmear69 0.0031622776601683794

ngkpt70 6 6 6
tsmear70 0.0039810717055349725

ngkpt71 6 6 6
tsmear71 0.005011872336272723

ngkpt72 6 6 6
tsmear72 0.006309573444801933

ngkpt73 6 6 6
tsmear73 0.007943282347242816

ngkpt74 6 6 6
tsmear74 0.01

ngkpt75 6 6 6
tsmear75 0.012589254117941673

ngkpt76 6 6 6
tsmear76 0.015848931924611134

ngkpt77 6 6 6
tsmear77 0.019952623149688795

ngkpt78 6 6 6
tsmear78 0.0251188643150958

ngkpt79 6 6 6
tsmear79 0.0316227766016838

ngkpt80 6 6 6
tsmear80 0.03981071705534973

ngkpt81 6 6 6
tsmear81 0.050118723362727234

ngkpt82 6 6 6
tsmear82 0.06309573444801933

ngkpt83 6 6 6
tsmear83 0.07943282347242815

ngkpt84 6 6 6
tsmear84 0.1

ngkpt85 7 7 7
tsmear85 0.001

ngkpt86 7 7 7
tsmear86 0.0012589254117941673

ngkpt87 7 7 7
tsmear87 0.0015848931924611134

ngkpt88 7 7 7
tsmear88 0.00199526231496888

ngkpt89 7 7 7
tsmear89 0.0025118864315095803

ngkpt90 7 7 7
tsmear90 0.0031622776601683794

ngkpt91 7 7 7
tsmear91 0.0039810717055349725

ngkpt92 7 7 7
tsmear92 0.005011872336272723

ngkpt93 7 7 7
tsmear93 0.006309573444801933

ngkpt94 7 7 7
tsmear94 0.007943282347242816

ngkpt95 7 7 7
tsmear95 0.01

ngkpt96 7 7 7
tsmear96 0.012589254117941673

ngkpt97 7 7 7
tsmear97 0.015848931924611134

ngkpt98 7 7 7
tsmear98 0.019952623149688795

ngkpt99 7 7 7
tsmear99 0.0251188643150958

ngkpt100 7 7 7
tsmear100 0.0316227766016838

ngkpt101 7 7 7
tsmear101 0.03981071705534973

ngkpt102 7 7 7
tsmear102 0.050118723362727234

ngkpt103 7 7 7
tsmear103 0.06309573444801933

ngkpt104 7 7 7
tsmear104 0.07943282347242815

ngkpt105 7 7 7
tsmear105 0.1

ngkpt106 8 8 8
tsmear106 0.001

ngkpt107 8 8 8
tsmear107 0.0012589254117941673

ngkpt108 8 8 8
tsmear108 0.0015848931924611134

ngkpt109 8 8 8
tsmear109 0.00199526231496888

ngkpt110 8 8 8
tsmear110 0.0025118864315095803

ngkpt111 8 8 8
tsmear111 0.0031622776601683794

ngkpt112 8 8 8
tsmear112 0.0039810717055349725

ngkpt113 8 8 8
tsmear113 0.005011872336272723

ngkpt114 8 8 8
tsmear114 0.006309573444801933

ngkpt115 8 8 8
tsmear115 0.007943282347242816

ngkpt116 8 8 8
tsmear116 0.01

ngkpt117 8 8 8
tsmear117 0.012589254117941673

ngkpt118 8 8 8
tsmear118 0.015848931924611134

ngkpt119 8 8 8
tsmear119 0.019952623149688795

ngkpt120 8 8 8
tsmear120 0.0251188643150958

ngkpt121 8 8 8
tsmear121 0.0316227766016838

ngkpt122 8 8 8
tsmear122 0.03981071705534973

ngkpt123 8 8 8
tsmear123 0.050118723362727234

ngkpt124 8 8 8
tsmear124 0.06309573444801933

ngkpt125 8 8 8
tsmear125 0.07943282347242815

ngkpt126 8 8 8
tsmear126 0.1

ngkpt127 9 9 9
tsmear127 0.001

ngkpt128 9 9 9
tsmear128 0.0012589254117941673

ngkpt129 9 9 9
tsmear129 0.0015848931924611134

ngkpt130 9 9 9
tsmear130 0.00199526231496888

ngkpt131 9 9 9
tsmear131 0.0025118864315095803

ngkpt132 9 9 9
tsmear132 0.0031622776601683794

ngkpt133 9 9 9
tsmear133 0.0039810717055349725

ngkpt134 9 9 9
tsmear134 0.005011872336272723

ngkpt135 9 9 9
tsmear135 0.006309573444801933

ngkpt136 9 9 9
tsmear136 0.007943282347242816

ngkpt137 9 9 9
tsmear137 0.01

ngkpt138 9 9 9
tsmear138 0.012589254117941673

ngkpt139 9 9 9
tsmear139 0.015848931924611134

ngkpt140 9 9 9
tsmear140 0.019952623149688795

ngkpt141 9 9 9
tsmear141 0.0251188643150958

ngkpt142 9 9 9
tsmear142 0.0316227766016838

ngkpt143 9 9 9
tsmear143 0.03981071705534973

ngkpt144 9 9 9
tsmear144 0.050118723362727234

ngkpt145 9 9 9
tsmear145 0.06309573444801933

ngkpt146 9 9 9
tsmear146 0.07943282347242815

ngkpt147 9 9 9
tsmear147 0.1

ngkpt148 10 10 10
tsmear148 0.001

ngkpt149 10 10 10
tsmear149 0.0012589254117941673

ngkpt150 10 10 10
tsmear150 0.0015848931924611134

ngkpt151 10 10 10
tsmear151 0.00199526231496888

ngkpt152 10 10 10
tsmear152 0.0025118864315095803

ngkpt153 10 10 10
tsmear153 0.0031622776601683794

ngkpt154 10 10 10
tsmear154 0.0039810717055349725

ngkpt155 10 10 10
tsmear155 0.005011872336272723

ngkpt156 10 10 10
tsmear156 0.006309573444801933

ngkpt157 10 10 10
tsmear157 0.007943282347242816

ngkpt158 10 10 10
tsmear158 0.01

ngkpt159 10 10 10
tsmear159 0.012589254117941673

ngkpt160 10 10 10
tsmear160 0.015848931924611134

ngkpt161 10 10 10
tsmear161 0.019952623149688795

ngkpt162 10 10 10
tsmear162 0.0251188643150958

ngkpt163 10 10 10
tsmear163 0.0316227766016838

ngkpt164 10 10 10
tsmear164 0.03981071705534973

ngkpt165 10 10 10
tsmear165 0.050118723362727234

ngkpt166 10 10 10
tsmear166 0.06309573444801933

ngkpt167 10 10 10
tsmear167 0.07943282347242815

ngkpt168 10 10 10
tsmear168 0.1

ngkpt169 11 11 11
tsmear169 0.001

ngkpt170 11 11 11
tsmear170 0.0012589254117941673

ngkpt171 11 11 11
tsmear171 0.0015848931924611134

ngkpt172 11 11 11
tsmear172 0.00199526231496888

ngkpt173 11 11 11
tsmear173 0.0025118864315095803

ngkpt174 11 11 11
tsmear174 0.0031622776601683794

ngkpt175 11 11 11
tsmear175 0.0039810717055349725

ngkpt176 11 11 11
tsmear176 0.005011872336272723

ngkpt177 11 11 11
tsmear177 0.006309573444801933

ngkpt178 11 11 11
tsmear178 0.007943282347242816

ngkpt179 11 11 11
tsmear179 0.01

ngkpt180 11 11 11
tsmear180 0.012589254117941673

ngkpt181 11 11 11
tsmear181 0.015848931924611134

ngkpt182 11 11 11
tsmear182 0.019952623149688795

ngkpt183 11 11 11
tsmear183 0.0251188643150958

ngkpt184 11 11 11
tsmear184 0.0316227766016838

ngkpt185 11 11 11
tsmear185 0.03981071705534973

ngkpt186 11 11 11
tsmear186 0.050118723362727234

ngkpt187 11 11 11
tsmear187 0.06309573444801933

ngkpt188 11 11 11
tsmear188 0.07943282347242815

ngkpt189 11 11 11
tsmear189 0.1

ngkpt190 12 12 12
tsmear190 0.001

ngkpt191 12 12 12
tsmear191 0.0012589254117941673

ngkpt192 12 12 12
tsmear192 0.0015848931924611134

ngkpt193 12 12 12
tsmear193 0.00199526231496888

ngkpt194 12 12 12
tsmear194 0.0025118864315095803

ngkpt195 12 12 12
tsmear195 0.0031622776601683794

ngkpt196 12 12 12
tsmear196 0.0039810717055349725

ngkpt197 12 12 12
tsmear197 0.005011872336272723

ngkpt198 12 12 12
tsmear198 0.006309573444801933

ngkpt199 12 12 12
tsmear199 0.007943282347242816

ngkpt200 12 12 12
tsmear200 0.01

ngkpt201 12 12 12
tsmear201 0.012589254117941673

ngkpt202 12 12 12
tsmear202 0.015848931924611134

ngkpt203 12 12 12
tsmear203 0.019952623149688795

ngkpt204 12 12 12
tsmear204 0.0251188643150958

ngkpt205 12 12 12
tsmear205 0.0316227766016838

ngkpt206 12 12 12
tsmear206 0.03981071705534973

ngkpt207 12 12 12
tsmear207 0.050118723362727234

ngkpt208 12 12 12
tsmear208 0.06309573444801933

ngkpt209 12 12 12
tsmear209 0.07943282347242815

ngkpt210 12 12 12
tsmear210 0.1
