ndtset 16

# Atoms definition
ntypat 1
znucl 41
pseudos "Nb.psp8"

# Common DataSet
natom 1
typat 1
xred 0 0 0
pp_dirpath "../pseudos/PBE-FR"
acell 0.33005 0.33005 0.33005 nm
rprim -0.5 0.5 0.5   0.5 -0.5 0.5   0.5 0.5 -0.5
kptopt 1
nshiftk 2
shiftk 0.25 0.25 0.25 -0.25 -0.25 -0.25

toldfe 1e-08
ecut 15.0 Ha
nstep 40
occopt 4
nband 10
outdata_prefix "./out/ecut"
ngkpt 3 3 3
tsmear 0.05 Ha

# DataSet 1
ecut1 36.0 Ha

# DataSet 2
ecut2 36.5 Ha

# DataSet 3
ecut3 37.0 Ha

# DataSet 4
ecut4 37.5 Ha

# DataSet 5
ecut5 38.0 Ha

# DataSet 6
ecut6 38.5 Ha

# DataSet 7
ecut7 39.0 Ha

# DataSet 8
ecut8 39.5 Ha

# DataSet 9
ecut9 40.0 Ha

# DataSet 10
ecut10 40.5 Ha

# DataSet 11
ecut11 41.0 Ha

# DataSet 12
ecut12 41.5 Ha

# DataSet 13
ecut13 42.0 Ha

# DataSet 14
ecut14 42.5 Ha

# DataSet 15
ecut15 43.0 Ha

# DataSet 16
ecut16 43.5 Ha