outdata_prefix "./out/kpt-smear"

# Suppress some unused outputs
prtebands   0
prtddb      0
prtden      0
prteig      0
prtgsr      0
prtkden     0
prtwf       0

# Atoms definition
ntypat      1
znucl       41
pseudos     "Nb.psp8"
pp_dirpath "../pseudos/PBE-FR"

# Crystal definition
natom       1
typat       1
xred        0 0 0
acell       0.33005 0.33005 0.33005 nm
rprim       -0.5 0.5 0.5   0.5 -0.5 0.5   0.5 0.5 -0.5
kptopt      1
nshiftk     2
shiftk      0.25 0.25 0.25 -0.25 -0.25 -0.25

# Spin-orbit coupling
nsppol      1
nspinor     2
nspden      1

# Calculation params
toldfe      1e-08
ecut        42 Ha
nstep       40
occopt      7
nband       18
prtden      1       # output the density
prtwf       1       # output the wavefunction
getden     -1       # take density from previous run as first guess
getwfk     -1       # take wavefunction from previous run as first guess

# Define datasets
ndtset 176

ngkpt1      4 4 4
tsmear1     0.05

ngkpt2      4 4 4
tsmear2     0.039716411736214076

ngkpt3      4 4 4
tsmear3     0.031547867224009665

ngkpt4      4 4 4
tsmear4     0.025059361681363617

ngkpt5      4 4 4
tsmear5     0.019905358527674864

ngkpt6      4 4 4
tsmear6     0.015811388300841896

ngkpt7      4 4 4
tsmear7     0.012559432157547899

ngkpt8      4 4 4
tsmear8     0.009976311574844396

ngkpt9      4 4 4
tsmear9     0.007924465962305565

ngkpt10     4 4 4
tsmear10    0.006294627058970834

ngkpt11     4 4 4
tsmear11    0.004999999999999998

ngkpt12     4 4 4
tsmear12    0.003971641173621406

ngkpt13     4 4 4
tsmear13    0.003154786722400965

ngkpt14     4 4 4
tsmear14    0.0025059361681363606

ngkpt15     4 4 4
tsmear15    0.0019905358527674854

ngkpt16     4 4 4
tsmear16    0.001581138830084189

ngkpt17     6 6 6
tsmear17    0.05
getden17    1
getwfk17    1

ngkpt18     6 6 6
tsmear18    0.039716411736214076

ngkpt19     6 6 6
tsmear19    0.031547867224009665

ngkpt20     6 6 6
tsmear20    0.025059361681363617

ngkpt21     6 6 6
tsmear21    0.019905358527674864

ngkpt22     6 6 6
tsmear22    0.015811388300841896

ngkpt23     6 6 6
tsmear23    0.012559432157547899

ngkpt24     6 6 6
tsmear24    0.009976311574844396

ngkpt25     6 6 6
tsmear25    0.007924465962305565

ngkpt26     6 6 6
tsmear26    0.006294627058970834

ngkpt27     6 6 6
tsmear27    0.004999999999999998

ngkpt28     6 6 6
tsmear28    0.003971641173621406

ngkpt29     6 6 6
tsmear29    0.003154786722400965

ngkpt30     6 6 6
tsmear30    0.0025059361681363606

ngkpt31     6 6 6
tsmear31    0.0019905358527674854

ngkpt32     6 6 6
tsmear32    0.001581138830084189

ngkpt33     8 8 8
tsmear33    0.05
getden33    17
getwfk33    17

ngkpt34     8 8 8
tsmear34    0.039716411736214076

ngkpt35     8 8 8
tsmear35    0.031547867224009665

ngkpt36     8 8 8
tsmear36    0.025059361681363617

ngkpt37     8 8 8
tsmear37    0.019905358527674864

ngkpt38     8 8 8
tsmear38    0.015811388300841896

ngkpt39     8 8 8
tsmear39    0.012559432157547899

ngkpt40     8 8 8
tsmear40    0.009976311574844396

ngkpt41     8 8 8
tsmear41    0.007924465962305565

ngkpt42     8 8 8
tsmear42    0.006294627058970834

ngkpt43     8 8 8
tsmear43    0.004999999999999998

ngkpt44     8 8 8
tsmear44    0.003971641173621406

ngkpt45     8 8 8
tsmear45    0.003154786722400965

ngkpt46     8 8 8
tsmear46    0.0025059361681363606

ngkpt47     8 8 8
tsmear47    0.0019905358527674854

ngkpt48     8 8 8
tsmear48    0.001581138830084189

ngkpt49     10 10 10
tsmear49    0.05
getden49    33
getwfk49    33

ngkpt50     10 10 10
tsmear50    0.039716411736214076

ngkpt51     10 10 10
tsmear51    0.031547867224009665

ngkpt52     10 10 10
tsmear52    0.025059361681363617

ngkpt53     10 10 10
tsmear53    0.019905358527674864

ngkpt54     10 10 10
tsmear54    0.015811388300841896

ngkpt55     10 10 10
tsmear55    0.012559432157547899

ngkpt56     10 10 10
tsmear56    0.009976311574844396

ngkpt57     10 10 10
tsmear57    0.007924465962305565

ngkpt58     10 10 10
tsmear58    0.006294627058970834

ngkpt59     10 10 10
tsmear59    0.004999999999999998

ngkpt60     10 10 10
tsmear60    0.003971641173621406

ngkpt61     10 10 10
tsmear61    0.003154786722400965

ngkpt62     10 10 10
tsmear62    0.0025059361681363606

ngkpt63     10 10 10
tsmear63    0.0019905358527674854

ngkpt64     10 10 10
tsmear64    0.001581138830084189

ngkpt65     12 12 12
tsmear65    0.05
getden65    49
getwfk65    49

ngkpt66     12 12 12
tsmear66    0.039716411736214076

ngkpt67     12 12 12
tsmear67    0.031547867224009665

ngkpt68     12 12 12
tsmear68    0.025059361681363617

ngkpt69     12 12 12
tsmear69    0.019905358527674864

ngkpt70     12 12 12
tsmear70    0.015811388300841896

ngkpt71     12 12 12
tsmear71    0.012559432157547899

ngkpt72     12 12 12
tsmear72    0.009976311574844396

ngkpt73     12 12 12
tsmear73    0.007924465962305565

ngkpt74     12 12 12
tsmear74    0.006294627058970834

ngkpt75     12 12 12
tsmear75    0.004999999999999998

ngkpt76     12 12 12
tsmear76    0.003971641173621406

ngkpt77     12 12 12
tsmear77    0.003154786722400965

ngkpt78     12 12 12
tsmear78    0.0025059361681363606

ngkpt79     12 12 12
tsmear79    0.0019905358527674854

ngkpt80     12 12 12
tsmear80    0.001581138830084189

ngkpt81     14 14 14
tsmear81    0.05
getden81    65
getwfk81    65

ngkpt82     14 14 14
tsmear82    0.039716411736214076

ngkpt83     14 14 14
tsmear83    0.031547867224009665

ngkpt84     14 14 14
tsmear84    0.025059361681363617

ngkpt85     14 14 14
tsmear85    0.019905358527674864

ngkpt86     14 14 14
tsmear86    0.015811388300841896

ngkpt87     14 14 14
tsmear87    0.012559432157547899

ngkpt88     14 14 14
tsmear88    0.009976311574844396

ngkpt89     14 14 14
tsmear89    0.007924465962305565

ngkpt90     14 14 14
tsmear90    0.006294627058970834

ngkpt91     14 14 14
tsmear91    0.004999999999999998

ngkpt92     14 14 14
tsmear92    0.003971641173621406

ngkpt93     14 14 14
tsmear93    0.003154786722400965

ngkpt94     14 14 14
tsmear94    0.0025059361681363606

ngkpt95     14 14 14
tsmear95    0.0019905358527674854

ngkpt96     14 14 14
tsmear96    0.001581138830084189

ngkpt97     16 16 16
tsmear97    0.05
getden97    81
getwfk97    81

ngkpt98     16 16 16
tsmear98    0.039716411736214076

ngkpt99     16 16 16
tsmear99    0.031547867224009665

ngkpt100    16 16 16
tsmear100   0.025059361681363617

ngkpt101    16 16 16
tsmear101   0.019905358527674864

ngkpt102    16 16 16
tsmear102   0.015811388300841896

ngkpt103    16 16 16
tsmear103   0.012559432157547899

ngkpt104    16 16 16
tsmear104   0.009976311574844396

ngkpt105    16 16 16
tsmear105   0.007924465962305565

ngkpt106    16 16 16
tsmear106   0.006294627058970834

ngkpt107    16 16 16
tsmear107   0.004999999999999998

ngkpt108    16 16 16
tsmear108   0.003971641173621406

ngkpt109    16 16 16
tsmear109   0.003154786722400965

ngkpt110    16 16 16
tsmear110   0.0025059361681363606

ngkpt111    16 16 16
tsmear111   0.0019905358527674854

ngkpt112    16 16 16
tsmear112   0.001581138830084189

ngkpt113    18 18 18
tsmear113   0.05
getden113   97
getwfk113   97

ngkpt114    18 18 18
tsmear114   0.039716411736214076

ngkpt115    18 18 18
tsmear115   0.031547867224009665

ngkpt116    18 18 18
tsmear116   0.025059361681363617

ngkpt117    18 18 18
tsmear117   0.019905358527674864

ngkpt118    18 18 18
tsmear118   0.015811388300841896

ngkpt119    18 18 18
tsmear119   0.012559432157547899

ngkpt120    18 18 18
tsmear120   0.009976311574844396

ngkpt121    18 18 18
tsmear121   0.007924465962305565

ngkpt122    18 18 18
tsmear122   0.006294627058970834

ngkpt123    18 18 18
tsmear123   0.004999999999999998

ngkpt124    18 18 18
tsmear124   0.003971641173621406

ngkpt125    18 18 18
tsmear125   0.003154786722400965

ngkpt126    18 18 18
tsmear126   0.0025059361681363606

ngkpt127    18 18 18
tsmear127   0.0019905358527674854

ngkpt128    18 18 18
tsmear128   0.001581138830084189

ngkpt129    20 20 20
tsmear129   0.05
getden129   113
getwfk129   113

ngkpt130    20 20 20
tsmear130   0.039716411736214076

ngkpt131    20 20 20
tsmear131   0.031547867224009665

ngkpt132    20 20 20
tsmear132   0.025059361681363617

ngkpt133    20 20 20
tsmear133   0.019905358527674864

ngkpt134    20 20 20
tsmear134   0.015811388300841896

ngkpt135    20 20 20
tsmear135   0.012559432157547899

ngkpt136    20 20 20
tsmear136   0.009976311574844396

ngkpt137    20 20 20
tsmear137   0.007924465962305565

ngkpt138    20 20 20
tsmear138   0.006294627058970834

ngkpt139    20 20 20
tsmear139   0.004999999999999998

ngkpt140    20 20 20
tsmear140   0.003971641173621406

ngkpt141    20 20 20
tsmear141   0.003154786722400965

ngkpt142    20 20 20
tsmear142   0.0025059361681363606

ngkpt143    20 20 20
tsmear143   0.0019905358527674854

ngkpt144    20 20 20
tsmear144   0.001581138830084189

ngkpt145    22 22 22
tsmear145   0.05
getden145   129
getwfk145   129

ngkpt146    22 22 22
tsmear146   0.039716411736214076

ngkpt147    22 22 22
tsmear147   0.031547867224009665

ngkpt148    22 22 22
tsmear148   0.025059361681363617

ngkpt149    22 22 22
tsmear149   0.019905358527674864

ngkpt150    22 22 22
tsmear150   0.015811388300841896

ngkpt151    22 22 22
tsmear151   0.012559432157547899

ngkpt152    22 22 22
tsmear152   0.009976311574844396

ngkpt153    22 22 22
tsmear153   0.007924465962305565

ngkpt154    22 22 22
tsmear154   0.006294627058970834

ngkpt155    22 22 22
tsmear155   0.004999999999999998

ngkpt156    22 22 22
tsmear156   0.003971641173621406

ngkpt157    22 22 22
tsmear157   0.003154786722400965

ngkpt158    22 22 22
tsmear158   0.0025059361681363606

ngkpt159    22 22 22
tsmear159   0.0019905358527674854

ngkpt160    22 22 22
tsmear160   0.001581138830084189

ngkpt161    24 24 24
tsmear161   0.05
getden161   145
getwfk161   145

ngkpt162    24 24 24
tsmear162   0.039716411736214076

ngkpt163    24 24 24
tsmear163   0.031547867224009665

ngkpt164    24 24 24
tsmear164   0.025059361681363617

ngkpt165    24 24 24
tsmear165   0.019905358527674864

ngkpt166    24 24 24
tsmear166   0.015811388300841896

ngkpt167    24 24 24
tsmear167   0.012559432157547899

ngkpt168    24 24 24
tsmear168   0.009976311574844396

ngkpt169    24 24 24
tsmear169   0.007924465962305565

ngkpt170    24 24 24
tsmear170   0.006294627058970834

ngkpt171    24 24 24
tsmear171   0.004999999999999998

ngkpt172    24 24 24
tsmear172   0.003971641173621406

ngkpt173    24 24 24
tsmear173   0.003154786722400965

ngkpt174    24 24 24
tsmear174   0.0025059361681363606

ngkpt175    24 24 24
tsmear175   0.0019905358527674854

ngkpt176    24 24 24
tsmear176   0.001581138830084189

